####################################################################### 
# 
# This file contains crystal structure data downloaded from the 
# Cambridge Structural Database (CSD) hosted by the Cambridge 
# Crystallographic Data Centre (CCDC).
# 
# Full information about CCDC data access policies and citation 
# guidelines are available at http://www.ccdc.cam.ac.uk/access/V1 
# 
# Audit and citation data items may have been added by the CCDC. 
# Please retain this information to preserve the provenance of 
# this file and to allow appropriate attribution of the data. 
# 
#######################################################################

data_2271
_audit_block_doi                 10.5517/cc418dt
_database_code_depnum_ccdc_archive 'CCDC 120385'
loop_
_citation_id
_citation_doi
_citation_year
1 10.1016/0040-4039(96)01933-8 1996
_audit_update_record             
;
1999-05-06 deposited with the CCDC.
2018-01-19 downloaded from the CCDC.
;

_chemical_name_systematic        
; 
2,5,8,11,14,17-hexa-t-butyldecacyclene
;
_chemical_formula_sum            'C60 H66'
_chemical_formula_weight         787.13
_chemical_melting_point          692
_chemical_compound_source        'see Tetrahedron Letters, 1996'

loop_
_atom_type_symbol
_atom_type_description
_atom_type_scat_dispersion_real
_atom_type_scat_dispersion_imag
_atom_type_scat_source
C C 0.0033 0.0016 'International Tables Vol C Tables 4.2.6.8 and 6.1.1.4'
H H 0.0000 0.0000 'International Tables Vol C Tables 4.2.6.8 and 6.1.1.4'

_symmetry_cell_setting           orthorhombic
_symmetry_space_group_name_H-M   Pbcn
_symmetry_Int_Tables_number      60

loop_
_symmetry_equiv_pos_as_xyz
'x, y, z'
'-x+1/2, -y+1/2, z+1/2'
'-x, y, -z+1/2'
'x+1/2, -y+1/2, -z'
'-x, -y, -z'
'x-1/2, y-1/2, -z-1/2'
'x, -y, z-1/2'
'-x-1/2, y-1/2, z'

_cell_length_a                   39.1630(12)
_cell_length_b                   11.8042(4)
_cell_length_c                   21.1369(7)
_cell_angle_alpha                90.00
_cell_angle_beta                 90.00
_cell_angle_gamma                90.00
_cell_volume                     9771.3(6)
_cell_formula_units_Z            8
_cell_measurement_temperature    293
_cell_measurement_reflns_used    7876
_cell_measurement_theta_min      1.80
_cell_measurement_theta_max      23.84

_exptl_crystal_description       'rhombic prism'
_exptl_crystal_colour            yellow
_exptl_crystal_size_max          0.36
_exptl_crystal_size_mid          0.32
_exptl_crystal_size_min          0.12
_exptl_crystal_density_diffrn    1.070
_exptl_crystal_density_method    none
_exptl_crystal_F_000             3408
_exptl_absorpt_coefficient_mu    0.060
_exptl_absorpt_correction_type   none

_exptl_special_details           
; 
recrystallised from ethyl acetate / n-heptane 
;

_diffrn_ambient_temperature      293
_diffrn_radiation_wavelength     0.71073
_diffrn_radiation_type           MoK\a
_diffrn_radiation_source         'fine-focus sealed tube'
_diffrn_radiation_monochromator  graphite
_diffrn_measurement_device       'Siemens SMART'
_diffrn_measurement_method       'CCD \w-scan'
_diffrn_standards_decay_%        0.0
_diffrn_reflns_number            34583
_diffrn_reflns_av_R_equivalents  0.0953
_diffrn_reflns_av_sigmaI/netI    0.0502
_diffrn_reflns_limit_h_min       0
_diffrn_reflns_limit_h_max       44
_diffrn_reflns_limit_k_min       0
_diffrn_reflns_limit_k_max       13
_diffrn_reflns_limit_l_min       0
_diffrn_reflns_limit_l_max       23
_diffrn_reflns_theta_min         1.80
_diffrn_reflns_theta_max         23.84
_reflns_number_total             7513
_reflns_number_observed          5693
_reflns_observed_criterion       >2sigma(I)

_computing_data_collection       'SMART software'
_computing_cell_refinement       'SAINT software'
_computing_data_reduction        'SAINT software'
_computing_structure_solution    'SHELXS-86 (Sheldrick, 1990)'
_computing_structure_refinement  'SHELXL-93 (Sheldrick, 1993)'
_computing_molecular_graphics    'ORTEP (Johnson, 1976)'

_refine_special_details          
; 
Refinement on F^2^ for ALL reflections except for 20 with very negative F^2^ 
or flagged by the user for potential systematic errors.  Weighted R-factors 
wR and all goodnesses of fit S are based on F^2^, conventional R-factors R 
are based on F, with F set to zero for negative F^2^. The observed criterion 
of F^2^ > 2sigma(F^2^) is used only for calculating R-factor-obs etc. and is 
not relevant to the choice of reflections for refinement.  R-factors based 
on F^2^ are statistically about twice as large as those based on F, and R- 
factors based on ALL data will be even larger. 
;

_refine_ls_structure_factor_coef Fsqd
_refine_ls_matrix_type           full
_refine_ls_weighting_scheme      
'calc w=1/[\s^2^(Fo^2^)+(0.0643P)^2^+7.6743P] where P=(Fo^2^+2Fc^2^)/3'
_atom_sites_solution_primary     direct
_atom_sites_solution_secondary   difmap
_atom_sites_solution_hydrogens   geom
_refine_ls_hydrogen_treatment    refxyz
_refine_ls_extinction_method     SHELXL
_refine_ls_extinction_coef       0.0010(2)
_refine_ls_extinction_expression Fc^*^=kFc[1+0.001xFc^2^\l^3^/sin(2\q)]^-1/4^
_refine_ls_number_reflns         7493
_refine_ls_number_parameters     542
_refine_ls_number_restraints     0
_refine_ls_R_factor_all          0.1052
_refine_ls_R_factor_obs          0.0751
_refine_ls_wR_factor_all         0.1963
_refine_ls_wR_factor_obs         0.1715
_refine_ls_goodness_of_fit_all   1.150
_refine_ls_goodness_of_fit_obs   1.180
_refine_ls_restrained_S_all      1.165
_refine_ls_restrained_S_obs      1.180
_refine_ls_shift/esd_max         0.000
_refine_ls_shift/esd_mean        0.000

loop_
_atom_site_label
_atom_site_type_symbol
_atom_site_fract_x
_atom_site_fract_y
_atom_site_fract_z
_atom_site_U_iso_or_equiv
_atom_site_thermal_displace_type
_atom_site_occupancy
_atom_site_calc_flag
_atom_site_refinement_flags
_atom_site_disorder_group
C1 C 0.32074(7) 0.2184(3) 0.49832(14) 0.0484(7) Uani 1 d . .
C2 C 0.30091(8) 0.3096(3) 0.47564(15) 0.0576(8) Uani 1 d . .
H2 H 0.29150(8) 0.3053(3) 0.43532(15) 0.069 Uiso 1 calc R .
C3 C 0.29522(9) 0.4039(3) 0.51141(15) 0.0608(9) Uani 1 d . .
C4 C 0.30914(8) 0.4111(3) 0.57362(15) 0.0556(8) Uani 1 d . .
H4 H 0.30616(8) 0.4769(3) 0.59719(15) 0.067 Uiso 1 calc R .
C5 C 0.32685(7) 0.3219(2) 0.59898(13) 0.0452(7) Uani 1 d . .
C6 C 0.34630(7) 0.3015(2) 0.65802(13) 0.0437(7) Uani 1 d . .
C7 C 0.35184(7) 0.3678(2) 0.71145(13) 0.0429(7) Uani 1 d . .
C8 C 0.33609(7) 0.4744(2) 0.73386(13) 0.0465(7) Uani 1 d . .
C9 C 0.30786(8) 0.5386(3) 0.71883(14) 0.0527(8) Uani 1 d . .
H9 H 0.29360(8) 0.5152(3) 0.68614(14) 0.063 Uiso 1 calc R .
C10 C 0.30007(9) 0.6399(3) 0.75228(15) 0.0579(8) Uani 1 d . .
C11 C 0.32111(9) 0.6743(3) 0.8005(2) 0.0634(9) Uani 1 d . .
H11 H 0.31675(9) 0.7426(3) 0.8208(2) 0.076 Uiso 1 calc R .
C12 C 0.34943(8) 0.6076(3) 0.82014(14) 0.0561(8) Uani 1 d . .
C13 C 0.37137(9) 0.6307(3) 0.8717(2) 0.0635(9) Uani 1 d . .
H13 H 0.36868(9) 0.6977(3) 0.8943(2) 0.076 Uiso 1 calc R .
C14 C 0.39654(9) 0.5561(3) 0.88920(15) 0.0602(9) Uani 1 d . .
C15 C 0.40056(8) 0.4532(3) 0.85493(14) 0.0565(8) Uani 1 d . .
H15 H 0.41660(8) 0.4004(3) 0.86846(14) 0.068 Uiso 1 calc R .
C16 C 0.38119(7) 0.4302(2) 0.80221(13) 0.0454(7) Uani 1 d . .
C17 C 0.37866(7) 0.3378(2) 0.75501(13) 0.0432(7) Uani 1 d . .
C18 C 0.39595(7) 0.2353(2) 0.74737(12) 0.0416(7) Uani 1 d . .
C19 C 0.42515(7) 0.1823(2) 0.78142(12) 0.0425(7) Uani 1 d . .
C20 C 0.44991(7) 0.2163(3) 0.82332(13) 0.0486(7) Uani 1 d . .
H20 H 0.45008(7) 0.2907(3) 0.83767(13) 0.058 Uiso 1 calc R .
C21 C 0.47546(7) 0.1389(3) 0.84527(14) 0.0513(8) Uani 1 d . .
C22 C 0.47515(8) 0.0294(3) 0.82401(14) 0.0598(9) Uani 1 d . .
H22 H 0.49131(8) -0.0213(3) 0.83943(14) 0.072 Uiso 1 calc R .
C23 C 0.45090(8) -0.0088(3) 0.77918(14) 0.0510(8) Uani 1 d . .
C24 C 0.44887(8) -0.1184(3) 0.75207(15) 0.0566(8) Uani 1 d . .
H24 H 0.46415(8) -0.1739(3) 0.76528(15) 0.068 Uiso 1 calc R .
C25 C 0.42494(8) -0.1452(2) 0.70672(14) 0.0509(8) Uani 1 d . .
C26 C 0.40200(8) -0.0593(2) 0.68538(13) 0.0482(7) Uani 1 d . .
H26 H 0.38578(8) -0.0768(2) 0.65476(13) 0.058 Uiso 1 calc R .
C27 C 0.40347(7) 0.0490(2) 0.70936(13) 0.0445(7) Uani 1 d . .
C28 C 0.38515(7) 0.1574(2) 0.69906(12) 0.0425(7) Uani 1 d . .
C29 C 0.36290(7) 0.1934(2) 0.65187(13) 0.0431(7) Uani 1 d . .
C30 C 0.35407(7) 0.1460(2) 0.58899(13) 0.0426(7) Uani 1 d . .
C31 C 0.36486(8) 0.0569(2) 0.55246(14) 0.0493(7) Uani 1 d . .
H31 H 0.37997(8) 0.0042(2) 0.56936(14) 0.059 Uiso 1 calc R .
C32 C 0.35315(8) 0.0438(3) 0.48852(14) 0.0501(7) Uani 1 d . .
C33 C 0.33137(8) 0.1230(3) 0.46351(14) 0.0507(8) Uani 1 d . .
H33 H 0.32342(8) 0.1135(3) 0.42239(14) 0.061 Uiso 1 calc R .
C34 C 0.33217(7) 0.2257(2) 0.56067(13) 0.0446(7) Uani 1 d . .
C35 C 0.35553(8) 0.5092(2) 0.78614(13) 0.0473(7) Uani 1 d . .
C36 C 0.42733(7) 0.0704(2) 0.75796(13) 0.0443(7) Uani 1 d . .
C37 C 0.27451(13) 0.5045(4) 0.4868(2) 0.0957(15) Uani 1 d . .
C38 C 0.25588(14) 0.4794(4) 0.4259(2) 0.121(2) Uani 1 d . .
H38A H 0.24301(14) 0.4106(4) 0.4305(2) 0.182 Uiso 1 calc R .
H38B H 0.27212(14) 0.4707(4) 0.3922(2) 0.182 Uiso 1 calc R .
H38C H 0.24066(14) 0.5407(4) 0.4162(2) 0.182 Uiso 1 calc R .
C39 C 0.2441(2) 0.5224(7) 0.5360(3) 0.192(4) Uani 1 d . .
H39A H 0.2303(2) 0.4554(7) 0.5376(3) 0.288 Uiso 1 calc R .
H39B H 0.2304(2) 0.5855(7) 0.5229(3) 0.288 Uiso 1 calc R .
H39C H 0.2534(2) 0.5372(7) 0.5773(3) 0.288 Uiso 1 calc R .
C40 C 0.2947(2) 0.6059(5) 0.4855(4) 0.235(5) Uani 1 d . .
H40A H 0.3057(2) 0.6160(5) 0.5257(4) 0.353 Uiso 1 calc R .
H40B H 0.2803(2) 0.6697(5) 0.4769(4) 0.353 Uiso 1 calc R .
H40C H 0.3117(2) 0.5997(5) 0.4529(4) 0.353 Uiso 1 calc R .
C41 C 0.26869(10) 0.7097(3) 0.7328(2) 0.0748(11) Uani 1 d . .
C42 C 0.23751(11) 0.6334(4) 0.7254(3) 0.130(2) Uani 1 d . .
H42A H 0.23286(11) 0.5962(4) 0.7649(3) 0.195 Uiso 1 calc R .
H42B H 0.24191(11) 0.5776(4) 0.6934(3) 0.195 Uiso 1 calc R .
H42C H 0.21814(11) 0.6783(4) 0.7134(3) 0.195 Uiso 1 calc R .
C43 C 0.27621(15) 0.7687(5) 0.6707(2) 0.129(2) Uani 1 d . .
H43A H 0.29584(15) 0.8166(5) 0.6755(2) 0.193 Uiso 1 calc R .
H43B H 0.25689(15) 0.8138(5) 0.6585(2) 0.193 Uiso 1 calc R .
H43C H 0.28066(15) 0.7131(5) 0.6386(2) 0.193 Uiso 1 calc R .
C44 C 0.25996(13) 0.8003(4) 0.7818(2) 0.122(2) Uani 1 d . .
H44A H 0.25509(13) 0.7648(4) 0.8216(2) 0.182 Uiso 1 calc R .
H44B H 0.24033(13) 0.8423(4) 0.7679(2) 0.182 Uiso 1 calc R .
H44C H 0.27899(13) 0.8509(4) 0.7866(2) 0.182 Uiso 1 calc R .
C45 C 0.41976(11) 0.5797(3) 0.9456(2) 0.0810(12) Uani 1 d . .
C46 C 0.4152(2) 0.6968(5) 0.9723(3) 0.159(3) Uani 1 d . .
H46A H 0.3919(2) 0.7072(5) 0.9847(3) 0.239 Uiso 1 calc R .
H46B H 0.4211(2) 0.7518(5) 0.9406(3) 0.239 Uiso 1 calc R .
H46C H 0.4298(2) 0.7062(5) 1.0084(3) 0.239 Uiso 1 calc R .
C47 C 0.45675(13) 0.5653(5) 0.9263(3) 0.155(3) Uani 1 d . .
H47A H 0.46004(13) 0.4907(5) 0.9092(3) 0.232 Uiso 1 calc R .
H47B H 0.47117(13) 0.5751(5) 0.9626(3) 0.232 Uiso 1 calc R .
H47C H 0.46249(13) 0.6208(5) 0.8949(3) 0.232 Uiso 1 calc R .
C48 C 0.4121(2) 0.4941(6) 0.9972(3) 0.165(3) Uani 1 d . .
H48A H 0.4149(2) 0.4189(6) 0.9807(3) 0.248 Uiso 1 calc R .
H48B H 0.3890(2) 0.5039(6) 1.0115(3) 0.248 Uiso 1 calc R .
H48C H 0.4275(2) 0.5054(6) 1.0320(3) 0.248 Uiso 1 calc R .
C49 C 0.50235(8) 0.1830(3) 0.89167(15) 0.0609(9) Uani 1 d . .
C50 C 0.52168(10) 0.2815(4) 0.8613(2) 0.0877(12) Uani 1 d . .
H50A H 0.53857(10) 0.3093(4) 0.8903(2) 0.132 Uiso 1 calc R .
H50B H 0.50593(10) 0.3411(4) 0.8512(2) 0.132 Uiso 1 calc R .
H50C H 0.53265(10) 0.2558(4) 0.8233(2) 0.132 Uiso 1 calc R .
C51 C 0.48487(9) 0.2222(4) 0.9527(2) 0.0790(11) Uani 1 d . .
H51A H 0.47282(9) 0.1598(4) 0.9714(2) 0.119 Uiso 1 calc R .
H51B H 0.46905(9) 0.2820(4) 0.9431(2) 0.119 Uiso 1 calc R .
H51C H 0.50177(9) 0.2496(4) 0.9818(2) 0.119 Uiso 1 calc R .
C52 C 0.52854(10) 0.0913(4) 0.9095(2) 0.0871(13) Uani 1 d . .
H52A H 0.51697(10) 0.0284(4) 0.9287(2) 0.131 Uiso 1 calc R .
H52B H 0.54479(10) 0.1221(4) 0.9388(2) 0.131 Uiso 1 calc R .
H52C H 0.54019(10) 0.0661(4) 0.8721(2) 0.131 Uiso 1 calc R .
C53 C 0.42457(9) -0.2624(3) 0.6752(2) 0.0616(9) Uani 1 d . .
C54 C 0.43938(14) -0.3534(3) 0.7182(2) 0.110(2) Uani 1 d . .
H54A H 0.46222(14) -0.3329(3) 0.7300(2) 0.165 Uiso 1 calc R .
H54B H 0.43975(14) -0.4244(3) 0.6961(2) 0.165 Uiso 1 calc R .
H54C H 0.42553(14) -0.3602(3) 0.7554(2) 0.165 Uiso 1 calc R .
C55 C 0.38841(11) -0.2999(3) 0.6582(2) 0.0849(12) Uani 1 d . .
H55A H 0.37812(11) -0.2444(3) 0.6310(2) 0.127 Uiso 1 calc R .
H55B H 0.37509(11) -0.3073(3) 0.6960(2) 0.127 Uiso 1 calc R .
H55C H 0.38931(11) -0.3715(3) 0.6367(2) 0.127 Uiso 1 calc R .
C56 C 0.44581(13) -0.2539(4) 0.6145(2) 0.107(2) Uani 1 d . .
H56A H 0.43637(13) -0.1964(4) 0.5876(2) 0.161 Uiso 1 calc R .
H56B H 0.44544(13) -0.3254(4) 0.5929(2) 0.161 Uiso 1 calc R .
H56C H 0.46894(13) -0.2346(4) 0.6251(2) 0.161 Uiso 1 calc R .
C57 C 0.36638(9) -0.0560(3) 0.4496(2) 0.0676(10) Uani 1 d . .
C58 C 0.35176(13) -0.0603(4) 0.3833(2) 0.120(2) Uani 1 d . .
H58A H 0.32732(13) -0.0651(4) 0.3855(2) 0.180 Uiso 1 calc R .
H58B H 0.36053(13) -0.1256(4) 0.3616(2) 0.180 Uiso 1 calc R .
H58C H 0.35816(13) 0.0069(4) 0.3607(2) 0.180 Uiso 1 calc R .
C59 C 0.40480(12) -0.0485(6) 0.4447(3) 0.152(3) Uani 1 d . .
H59A H 0.41449(12) -0.0457(6) 0.4864(3) 0.229 Uiso 1 calc R .
H59B H 0.41097(12) 0.0187(6) 0.4219(3) 0.229 Uiso 1 calc R .
H59C H 0.41335(12) -0.1138(6) 0.4228(3) 0.229 Uiso 1 calc R .
C60 C 0.3562(2) -0.1651(4) 0.4825(3) 0.157(3) Uani 1 d . .
H60A H 0.3318(2) -0.1692(4) 0.4855(3) 0.236 Uiso 1 calc R .
H60B H 0.3659(2) -0.1665(4) 0.5243(3) 0.236 Uiso 1 calc R .
H60C H 0.3646(2) -0.2286(4) 0.4588(3) 0.236 Uiso 1 calc R .

loop_
_atom_site_aniso_label
_atom_site_aniso_U_11
_atom_site_aniso_U_22
_atom_site_aniso_U_33
_atom_site_aniso_U_23
_atom_site_aniso_U_13
_atom_site_aniso_U_12
C1 0.046(2) 0.051(2) 0.048(2) -0.0020(14) -0.0052(14) -0.0033(14)
C2 0.060(2) 0.066(2) 0.047(2) -0.003(2) -0.0133(15) 0.006(2)
C3 0.065(2) 0.064(2) 0.054(2) -0.001(2) -0.017(2) 0.012(2)
C4 0.061(2) 0.052(2) 0.055(2) -0.0041(15) -0.011(2) 0.009(2)
C5 0.043(2) 0.047(2) 0.046(2) -0.0026(13) -0.0034(13) -0.0005(13)
C6 0.044(2) 0.042(2) 0.044(2) 0.0015(13) -0.0019(13) 0.0003(13)
C7 0.045(2) 0.040(2) 0.043(2) -0.0014(13) -0.0001(13) 0.0016(13)
C8 0.050(2) 0.044(2) 0.045(2) -0.0012(13) -0.0011(13) 0.0038(14)
C9 0.054(2) 0.056(2) 0.048(2) -0.0028(15) -0.0057(14) 0.010(2)
C10 0.067(2) 0.054(2) 0.053(2) -0.002(2) -0.004(2) 0.017(2)
C11 0.078(2) 0.053(2) 0.059(2) -0.012(2) -0.009(2) 0.024(2)
C12 0.065(2) 0.051(2) 0.052(2) -0.009(2) -0.006(2) 0.013(2)
C13 0.073(2) 0.060(2) 0.058(2) -0.022(2) -0.013(2) 0.018(2)
C14 0.066(2) 0.061(2) 0.054(2) -0.020(2) -0.015(2) 0.015(2)
C15 0.061(2) 0.056(2) 0.053(2) -0.009(2) -0.009(2) 0.016(2)
C16 0.049(2) 0.044(2) 0.043(2) -0.0009(13) -0.0022(13) 0.0039(14)
C17 0.046(2) 0.042(2) 0.0415(15) -0.0008(13) -0.0006(13) 0.0006(13)
C18 0.044(2) 0.043(2) 0.0374(14) 0.0013(13) 0.0011(12) 0.0004(13)
C19 0.045(2) 0.048(2) 0.0347(14) 0.0003(13) 0.0011(12) 0.0055(13)
C20 0.049(2) 0.053(2) 0.044(2) -0.0060(14) -0.0010(14) 0.0085(14)
C21 0.046(2) 0.061(2) 0.047(2) -0.0094(15) 0.0002(14) 0.0104(15)
C22 0.058(2) 0.072(2) 0.050(2) -0.002(2) -0.004(2) 0.021(2)
C23 0.054(2) 0.053(2) 0.046(2) -0.0031(14) -0.0016(14) 0.0090(15)
C24 0.063(2) 0.053(2) 0.054(2) 0.002(2) -0.003(2) 0.018(2)
C25 0.064(2) 0.040(2) 0.049(2) 0.0025(14) 0.007(2) 0.0042(14)
C26 0.055(2) 0.045(2) 0.045(2) -0.0006(14) 0.0006(14) -0.0019(14)
C27 0.048(2) 0.044(2) 0.042(2) -0.0013(13) -0.0005(13) 0.0044(13)
C28 0.045(2) 0.041(2) 0.0410(15) -0.0008(13) 0.0015(13) 0.0004(13)
C29 0.044(2) 0.042(2) 0.043(2) 0.0002(13) 0.0007(13) -0.0005(13)
C30 0.042(2) 0.042(2) 0.043(2) -0.0023(13) -0.0021(12) -0.0032(13)
C31 0.050(2) 0.049(2) 0.049(2) -0.0008(14) -0.0035(14) 0.0012(14)
C32 0.048(2) 0.054(2) 0.048(2) -0.0071(14) 0.0012(14) -0.0038(15)
C33 0.051(2) 0.057(2) 0.044(2) -0.0054(15) -0.0063(14) -0.006(2)
C34 0.041(2) 0.048(2) 0.046(2) -0.0032(13) -0.0023(13) -0.0044(13)
C35 0.054(2) 0.045(2) 0.043(2) -0.0071(13) -0.0015(14) 0.0059(14)
C36 0.047(2) 0.046(2) 0.0401(15) -0.0003(13) 0.0017(13) 0.0058(13)
C37 0.126(4) 0.082(3) 0.078(3) -0.009(2) -0.044(3) 0.045(3)
C38 0.149(5) 0.121(4) 0.094(3) 0.009(3) -0.060(3) 0.044(4)
C39 0.189(7) 0.265(9) 0.122(5) -0.037(5) -0.043(5) 0.160(7)
C40 0.280(10) 0.079(4) 0.347(11) 0.100(6) -0.204(9) -0.039(5)
C41 0.081(3) 0.072(2) 0.072(2) -0.009(2) -0.016(2) 0.033(2)
C42 0.069(3) 0.116(4) 0.204(6) -0.028(4) -0.032(3) 0.038(3)
C43 0.151(5) 0.133(4) 0.103(4) 0.028(3) -0.016(3) 0.066(4)
C44 0.129(4) 0.128(4) 0.108(3) -0.040(3) -0.035(3) 0.086(4)
C45 0.084(3) 0.080(3) 0.078(3) -0.034(2) -0.031(2) 0.029(2)
C46 0.164(5) 0.136(4) 0.178(5) -0.109(4) -0.114(5) 0.077(4)
C47 0.087(4) 0.192(6) 0.185(6) -0.112(5) -0.053(4) 0.032(4)
C48 0.235(8) 0.179(6) 0.083(3) 0.006(4) -0.078(4) -0.024(6)
C49 0.050(2) 0.079(2) 0.054(2) -0.013(2) -0.005(2) 0.011(2)
C50 0.065(2) 0.113(3) 0.086(3) -0.009(2) -0.011(2) -0.009(2)
C51 0.068(2) 0.110(3) 0.059(2) -0.026(2) -0.012(2) 0.013(2)
C52 0.070(2) 0.107(3) 0.084(3) -0.024(2) -0.031(2) 0.029(2)
C53 0.073(2) 0.046(2) 0.065(2) -0.002(2) 0.001(2) 0.002(2)
C54 0.148(4) 0.046(2) 0.136(4) -0.002(2) -0.040(3) 0.017(3)
C55 0.100(3) 0.051(2) 0.104(3) -0.007(2) -0.007(3) -0.009(2)
C56 0.139(4) 0.077(3) 0.106(3) -0.038(3) 0.048(3) -0.015(3)
C57 0.074(2) 0.072(2) 0.057(2) -0.021(2) -0.008(2) 0.011(2)
C58 0.130(4) 0.148(5) 0.082(3) -0.061(3) -0.028(3) 0.050(4)
C59 0.073(3) 0.228(7) 0.157(5) -0.118(5) 0.001(3) 0.035(4)
C60 0.293(9) 0.060(3) 0.118(4) -0.027(3) 0.015(5) 0.007(4)

_geom_special_details            
; 
All esds (except the esd in the dihedral angle between two l.s. planes) 
are estimated using the full covariance matrix.  The cell esds are taken 
into account individually in the estimation of esds in distances, angles 
and torsion angles; correlations between esds in cell parameters are only 
used when they are defined by crystal symmetry.  An approximate (isotropic) 
treatment of cell esds is used for estimating esds involving l.s. planes. 
;

loop_
_geom_bond_atom_site_label_1
_geom_bond_atom_site_label_2
_geom_bond_distance
_geom_bond_site_symmetry_2
_geom_bond_publ_flag
C1 C34 1.394(4) . Y
C1 C33 1.408(4) . Y
C1 C2 1.412(4) . Y
C2 C3 1.364(4) . Y
C3 C4 1.426(4) . Y
C3 C37 1.528(5) . Y
C4 C5 1.369(4) . Y
C5 C34 1.411(4) . Y
C5 C6 1.482(4) . Y
C6 C7 1.391(4) . Y
C6 C29 1.438(4) . Y
C7 C17 1.441(4) . Y
C7 C8 1.479(4) . Y
C8 C9 1.378(4) . Y
C8 C35 1.404(4) . Y
C9 C10 1.422(4) . Y
C10 C11 1.372(4) . Y
C10 C41 1.536(5) . Y
C11 C12 1.421(4) . Y
C12 C35 1.387(4) . Y
C12 C13 1.415(4) . Y
C13 C14 1.372(4) . Y
C14 C15 1.423(4) . Y
C14 C45 1.526(5) . Y
C15 C16 1.375(4) . Y
C16 C35 1.412(4) . Y
C16 C17 1.482(4) . Y
C17 C18 1.396(4) . Y
C18 C28 1.437(4) . Y
C18 C19 1.489(4) . Y
C19 C20 1.373(4) . Y
C19 C36 1.414(4) . Y
C20 C21 1.432(4) . Y
C21 C22 1.369(4) . Y
C21 C49 1.530(4) . Y
C22 C23 1.415(4) . Y
C23 C36 1.388(4) . Y
C23 C24 1.417(4) . Y
C24 C25 1.377(4) . Y
C25 C26 1.428(4) . Y
C25 C53 1.535(4) . Y
C26 C27 1.376(4) . Y
C27 C36 1.411(4) . Y
C27 C28 1.483(4) . Y
C28 C29 1.391(4) . Y
C29 C30 1.483(4) . Y
C30 C31 1.372(4) . Y
C30 C34 1.407(4) . Y
C31 C32 1.436(4) . Y
C32 C33 1.372(4) . Y
C32 C57 1.527(4) . Y
C37 C40 1.436(7) . Y
C37 C38 1.510(5) . Y
C37 C39 1.594(8) . Y
C41 C43 1.515(6) . Y
C41 C42 1.525(6) . Y
C41 C44 1.528(5) . Y
C45 C46 1.503(5) . Y
C45 C47 1.515(6) . Y
C45 C48 1.516(7) . Y
C49 C50 1.529(5) . Y
C49 C51 1.532(4) . Y
C49 C52 1.538(5) . Y
C53 C54 1.521(5) . Y
C53 C55 1.527(5) . Y
C53 C56 1.532(5) . Y
C57 C59 1.511(6) . Y
C57 C58 1.515(5) . Y
C57 C60 1.518(6) . Y

loop_
_geom_angle_atom_site_label_1
_geom_angle_atom_site_label_2
_geom_angle_atom_site_label_3
_geom_angle
_geom_angle_site_symmetry_1
_geom_angle_site_symmetry_3
_geom_angle_publ_flag
C34 C1 C33 116.7(3) . . Y
C34 C1 C2 116.8(3) . . Y
C33 C1 C2 126.5(3) . . Y
C3 C2 C1 121.6(3) . . Y
C2 C3 C4 119.8(3) . . Y
C2 C3 C37 122.1(3) . . Y
C4 C3 C37 118.1(3) . . Y
C5 C4 C3 120.6(3) . . Y
C4 C5 C34 118.0(3) . . Y
C4 C5 C6 135.7(3) . . Y
C34 C5 C6 106.0(2) . . Y
C7 C6 C29 120.2(2) . . Y
C7 C6 C5 132.2(3) . . Y
C29 C6 C5 107.5(2) . . Y
C6 C7 C17 119.6(2) . . Y
C6 C7 C8 132.4(3) . . Y
C17 C7 C8 108.0(2) . . Y
C9 C8 C35 117.1(3) . . Y
C9 C8 C7 136.8(3) . . Y
C35 C8 C7 106.0(2) . . Y
C8 C9 C10 121.3(3) . . Y
C11 C10 C9 119.3(3) . . Y
C11 C10 C41 121.4(3) . . Y
C9 C10 C41 119.3(3) . . Y
C10 C11 C12 121.5(3) . . Y
C35 C12 C13 117.1(3) . . Y
C35 C12 C11 116.5(3) . . Y
C13 C12 C11 126.4(3) . . Y
C14 C13 C12 121.4(3) . . Y
C13 C14 C15 119.3(3) . . Y
C13 C14 C45 121.4(3) . . Y
C15 C14 C45 119.2(3) . . Y
C16 C15 C14 121.3(3) . . Y
C15 C16 C35 117.2(3) . . Y
C15 C16 C17 136.7(3) . . Y
C35 C16 C17 106.1(2) . . Y
C18 C17 C7 119.5(2) . . Y
C18 C17 C16 133.1(3) . . Y
C7 C17 C16 107.3(2) . . Y
C17 C18 C28 119.6(2) . . Y
C17 C18 C19 132.9(2) . . Y
C28 C18 C19 107.5(2) . . Y
C20 C19 C36 117.2(3) . . Y
C20 C19 C18 137.0(3) . . Y
C36 C19 C18 105.6(2) . . Y
C19 C20 C21 121.1(3) . . Y
C22 C21 C20 119.3(3) . . Y
C22 C21 C49 122.5(3) . . Y
C20 C21 C49 118.2(3) . . Y
C21 C22 C23 121.8(3) . . Y
C36 C23 C22 116.6(3) . . Y
C36 C23 C24 116.6(3) . . Y
C22 C23 C24 126.8(3) . . Y
C25 C24 C23 121.9(3) . . Y
C24 C25 C26 119.0(3) . . Y
C24 C25 C53 121.0(3) . . Y
C26 C25 C53 119.8(3) . . Y
C27 C26 C25 121.1(3) . . Y
C26 C27 C36 117.5(3) . . Y
C26 C27 C28 136.6(3) . . Y
C36 C27 C28 105.9(2) . . Y
C29 C28 C18 119.9(2) . . Y
C29 C28 C27 132.2(2) . . Y
C18 C28 C27 107.8(2) . . Y
C28 C29 C6 119.3(2) . . Y
C28 C29 C30 132.3(3) . . Y
C6 C29 C30 108.1(2) . . Y
C31 C30 C34 117.5(3) . . Y
C31 C30 C29 136.2(3) . . Y
C34 C30 C29 105.7(2) . . Y
C30 C31 C32 120.9(3) . . Y
C33 C32 C31 119.2(3) . . Y
C33 C32 C57 121.9(3) . . Y
C31 C32 C57 118.8(3) . . Y
C32 C33 C1 121.9(3) . . Y
C1 C34 C30 123.8(3) . . Y
C1 C34 C5 123.0(3) . . Y
C30 C34 C5 112.6(2) . . Y
C12 C35 C8 124.0(3) . . Y
C12 C35 C16 123.5(3) . . Y
C8 C35 C16 112.5(2) . . Y
C23 C36 C27 123.7(3) . . Y
C23 C36 C19 123.8(3) . . Y
C27 C36 C19 112.5(2) . . Y
C40 C37 C38 114.4(5) . . Y
C40 C37 C3 111.2(4) . . Y
C38 C37 C3 113.2(3) . . Y
C40 C37 C39 108.3(6) . . Y
C38 C37 C39 102.8(4) . . Y
C3 C37 C39 106.1(4) . . Y
C43 C41 C42 109.8(4) . . Y
C43 C41 C44 108.0(4) . . Y
C42 C41 C44 107.7(4) . . Y
C43 C41 C10 108.9(3) . . Y
C42 C41 C10 110.5(3) . . Y
C44 C41 C10 111.9(3) . . Y
C46 C45 C47 108.5(4) . . Y
C46 C45 C48 108.7(5) . . Y
C47 C45 C48 107.9(5) . . Y
C46 C45 C14 113.0(3) . . Y
C47 C45 C14 109.8(3) . . Y
C48 C45 C14 108.8(4) . . Y
C50 C49 C21 109.2(3) . . Y
C50 C49 C51 110.2(3) . . Y
C21 C49 C51 109.5(3) . . Y
C50 C49 C52 108.0(3) . . Y
C21 C49 C52 112.2(3) . . Y
C51 C49 C52 107.7(3) . . Y
C54 C53 C55 106.8(3) . . Y
C54 C53 C56 109.8(4) . . Y
C55 C53 C56 108.9(3) . . Y
C54 C53 C25 112.0(3) . . Y
C55 C53 C25 111.9(3) . . Y
C56 C53 C25 107.4(3) . . Y
C59 C57 C58 108.4(4) . . Y
C59 C57 C60 110.0(5) . . Y
C58 C57 C60 107.3(4) . . Y
C59 C57 C32 109.2(3) . . Y
C58 C57 C32 113.4(3) . . Y
C60 C57 C32 108.5(3) . . Y

_refine_diff_density_max         0.476
_refine_diff_density_min         -0.374

